100 2672
419 664 300 427 317 994 498 998 661 628 356 54 1029 1 899 329 208 377 579 1 75 89 556 1 888 208 932 301 37 597 275 850 818 167 764 383 48 136 825 985 47 111 819 465 63 665 362 812 857 668 93 711 245 293 390 417 337 385 876 74 380 488 691 109 224 562 630 504 799 862 40 438 840 744 663 646 773 517 698 337 480 321 257 1 664 680 1 93 286 222 525 229 377 135 5 821 585 1000 82 576 
486 586 280 337 354 936 539 954 675 696 354 17 938 58 851 355 139 454 519 4 139 134 498 13 883 110 872 246 68 685 192 834 810 211 698 415 50 131 762 893 29 144 764 532 101 593 432 880 773 646 77 694 227 194 359 374 431 313 794 24 387 425 758 81 290 546 691 421 714 800 116 460 852 677 694 567 753 561 743 257 540 308 345 40 732 768 22 170 384 185 427 251 355 110 30 795 671 943 74 482 
